Minimize
 Cost:   LoadFunction 
Subject To
Coverage.1: f_1_33 + f_1_32 + f_1_21 + f_1_7 + f_1_26 + f_1_2 + f_1_17 + f_1_1 + f_1_18 + f_1_30 + f_1_16 + f_1_27 + f_1_25 + f_1_28 + f_1_14 + f_1_20 + f_1_24 + f_1_10 + f_1_31 + f_1_35 + f_1_11 + f_1_22 + f_1_0 + f_1_13 + f_1_23 + f_1_29 + f_1_6 + f_1_3 + f_1_9 + f_1_12 + f_1_15 + f_1_8 + f_1_4 + f_1_34 + f_1_19 + f_1_5  = 1
ProcLoad.M3: Load.M3  - 100 f_1_5 - 100 f_1_22 - 100 f_1_1 - 100 f_1_27 - 100 f_1_10 - 100 f_1_11 = 0
ProcLoad.M5: Load.M5  - 100 f_1_0 - 100 f_1_28 - 100 f_1_33 - 100 f_1_6 - 100 f_1_26 - 100 f_1_3 = 0
ProcLoad.M12: Load.M12  - 100 f_1_22 - 100 f_1_18 - 100 f_1_30 - 100 f_1_20 - 100 f_1_26 - 100 f_1_2 = 0
ProcLoad.M10: Load.M10  - 100 f_1_1 - 100 f_1_25 - 100 f_1_33 - 100 f_1_31 - 100 f_1_23 - 100 f_1_17 = 0
ProcLoad.M4: Load.M4  - 100 f_1_0 - 100 f_1_7 - 100 f_1_15 - 100 f_1_10 - 100 f_1_24 - 100 f_1_9 = 0
ProcLoad.M11: Load.M11  - 100 f_1_16 - 100 f_1_15 - 100 f_1_20 - 100 f_1_23 - 100 f_1_14 - 100 f_1_35 = 0
ProcLoad.M7: Load.M7  - 100 f_1_34 - 100 f_1_7 - 100 f_1_4 - 100 f_1_30 - 100 f_1_29 - 100 f_1_17 = 0
ProcLoad.M1: Load.M1  - 100 f_1_21 - 100 f_1_25 - 100 f_1_8 - 100 f_1_12 - 100 f_1_24 - 100 f_1_2 = 0
ProcLoad.M8: Load.M8  - 100 f_1_19 - 100 f_1_5 - 100 f_1_28 - 100 f_1_4 - 100 f_1_12 - 100 f_1_35 = 0
ProcLoad.M2: Load.M2  - 100 f_1_16 - 100 f_1_8 - 100 f_1_29 - 100 f_1_32 - 100 f_1_11 - 100 f_1_3 = 0
ProcLoad.M9: Load.M9  - 100 f_1_19 - 100 f_1_18 - 100 f_1_13 - 100 f_1_31 - 100 f_1_9 - 100 f_1_32 = 0
ProcLoad.M6: Load.M6  - 100 f_1_34 - 100 f_1_21 - 100 f_1_27 - 100 f_1_13 - 100 f_1_6 - 100 f_1_14 = 0
ProcLoadBound.M3: Load.M3 <= 100
ProcLoadBound.M5: Load.M5 <= 100
ProcLoadBound.M12: Load.M12 <= 100
ProcLoadBound.M10: Load.M10 <= 100
ProcLoadBound.M4: Load.M4 <= 100
ProcLoadBound.M11: Load.M11 <= 100
ProcLoadBound.M7: Load.M7 <= 100
ProcLoadBound.M1: Load.M1 <= 100
ProcLoadBound.M8: Load.M8 <= 100
ProcLoadBound.M2: Load.M2 <= 100
ProcLoadBound.M9: Load.M9 <= 100
ProcLoadBound.M6: Load.M6 <= 100
MaxProcLoadBound.M3: Load.M3 - LoadFunction <= 0
MaxProcLoadBound.M5: Load.M5 - LoadFunction <= 0
MaxProcLoadBound.M12: Load.M12 - LoadFunction <= 0
MaxProcLoadBound.M10: Load.M10 - LoadFunction <= 0
MaxProcLoadBound.M4: Load.M4 - LoadFunction <= 0
MaxProcLoadBound.M11: Load.M11 - LoadFunction <= 0
MaxProcLoadBound.M7: Load.M7 - LoadFunction <= 0
MaxProcLoadBound.M1: Load.M1 - LoadFunction <= 0
MaxProcLoadBound.M8: Load.M8 - LoadFunction <= 0
MaxProcLoadBound.M2: Load.M2 - LoadFunction <= 0
MaxProcLoadBound.M9: Load.M9 - LoadFunction <= 0
MaxProcLoadBound.M6: Load.M6 - LoadFunction <= 0
Bounds
 0 <= f_1_33 <= 1
 0 <= f_1_32 <= 1
 0 <= f_1_21 <= 1
 0 <= f_1_7 <= 1
 0 <= f_1_26 <= 1
 0 <= f_1_2 <= 1
 0 <= f_1_17 <= 1
 0 <= f_1_1 <= 1
 0 <= f_1_18 <= 1
 0 <= f_1_30 <= 1
 0 <= f_1_16 <= 1
 0 <= f_1_27 <= 1
 0 <= f_1_25 <= 1
 0 <= f_1_28 <= 1
 0 <= f_1_14 <= 1
 0 <= f_1_20 <= 1
 0 <= f_1_24 <= 1
 0 <= f_1_10 <= 1
 0 <= f_1_31 <= 1
 0 <= f_1_35 <= 1
 0 <= f_1_11 <= 1
 0 <= f_1_22 <= 1
 0 <= f_1_0 <= 1
 0 <= f_1_13 <= 1
 0 <= f_1_23 <= 1
 0 <= f_1_29 <= 1
 0 <= f_1_6 <= 1
 0 <= f_1_3 <= 1
 0 <= f_1_9 <= 1
 0 <= f_1_12 <= 1
 0 <= f_1_15 <= 1
 0 <= f_1_8 <= 1
 0 <= f_1_4 <= 1
 0 <= f_1_34 <= 1
 0 <= f_1_19 <= 1
 0 <= f_1_5 <= 1
End
